(set-info :smt-lib-version 2.6)
(set-logic QF_S)
(set-info :source |
Generated by: Murphy Berzish, Mitja Kulczynski, Federico Mora, Florin Manea, Joel Day, Dirk Nowotka, Vijay Ganesh, Zhengyang Lu
Generated on: 2020-10-01
Description: Translated from a collection of real-world regex queries, AutomataArk, collected by Loris D’Antoni and Fang Wang: https://github.com/lorisdanto/automatark
Application: Evaluate solvers on real-world regex queries
Target solver: Z3str3RE, CVC4, OSTRICH, Z3seq, Z3str3, Z3-Trau
Publications: Berzish, M., Kulczynski, M., Mora, F., Manea, F., Day, J. D., Nowotka, D., & Ganesh, V. (2021, July). An SMT solver for regular expressions and linear arithmetic over string length. In CAV 2021.
|)
(set-info :license "https://creativecommons.org/licenses/by/4.0/")
(set-info :category "industrial")
(set-info :status unsat)

(declare-const X String)
(assert (not (str.in_re X (re.++ (re.union (str.to_re "http") (str.to_re "https") (str.to_re "ftp")) (str.to_re "://") (re.opt (re.++ (re.+ (re.union (re.range "a" "z") (re.range "A" "Z") (re.range "0" "9") (str.to_re ".") (str.to_re "-"))) (re.* (re.++ (str.to_re ":") (re.+ (re.union (re.range "a" "z") (re.range "A" "Z") (re.range "0" "9") (str.to_re ".") (str.to_re "&") (str.to_re "%") (str.to_re "$") (str.to_re "-"))))) (str.to_re "@"))) (re.union (re.++ (re.union (re.++ (str.to_re "25") (re.range "0" "5")) (re.++ (str.to_re "2") (re.range "0" "4") (re.range "0" "9")) (re.++ ((_ re.loop 1 1) (re.range "0" "1")) ((_ re.loop 2 2) (re.range "0" "9"))) (re.++ ((_ re.loop 1 1) (re.range "1" "9")) ((_ re.loop 1 1) (re.range "0" "9"))) (re.range "1" "9")) (str.to_re ".") (re.union (re.++ (str.to_re "25") (re.range "0" "5")) (re.++ (str.to_re "2") (re.range "0" "4") (re.range "0" "9")) (re.++ ((_ re.loop 1 1) (re.range "0" "1")) ((_ re.loop 2 2) (re.range "0" "9"))) (re.++ ((_ re.loop 1 1) (re.range "1" "9")) ((_ re.loop 1 1) (re.range "0" "9"))) (re.range "1" "9") (str.to_re "0")) (str.to_re ".") (re.union (re.++ (str.to_re "25") (re.range "0" "5")) (re.++ (str.to_re "2") (re.range "0" "4") (re.range "0" "9")) (re.++ ((_ re.loop 1 1) (re.range "0" "1")) ((_ re.loop 2 2) (re.range "0" "9"))) (re.++ ((_ re.loop 1 1) (re.range "1" "9")) ((_ re.loop 1 1) (re.range "0" "9"))) (re.range "1" "9") (str.to_re "0")) (str.to_re ".") (re.union (re.++ (str.to_re "25") (re.range "0" "5")) (re.++ (str.to_re "2") (re.range "0" "4") (re.range "0" "9")) (re.++ ((_ re.loop 1 1) (re.range "0" "1")) ((_ re.loop 2 2) (re.range "0" "9"))) (re.++ ((_ re.loop 1 1) (re.range "1" "9")) ((_ re.loop 1 1) (re.range "0" "9"))) (re.range "0" "9"))) (re.++ (re.* (re.++ (re.+ (re.union (re.range "a" "z") (re.range "A" "Z") (re.range "0" "9") (str.to_re "-"))) (str.to_re "."))) (re.+ (re.union (re.range "a" "z") (re.range "A" "Z") (re.range "0" "9") (str.to_re "-"))) (str.to_re ".") ((_ re.loop 2 4) (re.union (re.range "a" "z") (re.range "A" "Z"))))) (re.opt (re.++ (str.to_re ":") (re.+ (re.range "0" "9")))) (re.* (re.++ (str.to_re "/") (re.comp (str.to_re "/")) (re.* (re.union (re.range "a" "z") (re.range "A" "Z") (re.range "0" "9") (str.to_re ".") (str.to_re ",") (str.to_re "?") (str.to_re "'") (str.to_re "\u{5c}") (str.to_re "/") (str.to_re "+") (str.to_re "&") (str.to_re "%") (str.to_re "$") (str.to_re "#") (str.to_re "=") (str.to_re "~") (str.to_re "_") (str.to_re "-") (str.to_re "@"))))) (str.to_re "\u{a}")))))
(assert (str.in_re X (re.++ (str.to_re "/.onpropertychange") (re.* (re.union (str.to_re " ") (str.to_re "\u{9}") (str.to_re "\u{a}") (str.to_re "\u{c}") (str.to_re "\u{d}"))) (str.to_re "=") (re.* (re.union (str.to_re " ") (str.to_re "\u{9}") (str.to_re "\u{a}") (str.to_re "\u{c}") (str.to_re "\u{d}"))) (str.to_re "function") (re.* (re.comp (str.to_re "{"))) (str.to_re "{") (re.* (re.comp (str.to_re "}"))) (re.+ (re.union (re.range "0" "9") (re.range "A" "Z") (re.range "a" "z") (str.to_re "_"))) (str.to_re ".swapNode(/ims\u{a}"))))
(assert (not (str.in_re X (re.++ (re.+ (re.union (re.range "0" "9") (re.range "A" "Z") (re.range "a" "z") (str.to_re "_"))) (re.* (re.union (str.to_re "-") (str.to_re ".") (re.range "0" "9") (re.range "A" "Z") (re.range "a" "z") (str.to_re "_"))) (str.to_re "@") (re.+ (re.union (str.to_re "-") (re.range "0" "9") (re.range "A" "Z") (re.range "a" "z") (str.to_re "_"))) (str.to_re ".") ((_ re.loop 2 6) (re.range "a" "z")) (re.opt (re.++ (str.to_re ".") ((_ re.loop 2 6) (re.range "a" "z")))) (str.to_re "\u{a}")))))
(assert (str.in_re X (str.to_re "User-Agent:Runnerads.grokads.comHost:mcndvwoemn/lvv.jde\u{a}")))
(assert (not (str.in_re X (re.++ (str.to_re "filename=\u{22}") (re.range "0" "9") (str.to_re "DA") (re.+ (re.union (str.to_re " ") (str.to_re "\u{9}") (str.to_re "\u{a}") (str.to_re "\u{c}") (str.to_re "\u{d}"))) (str.to_re "www.peer2mail.com\u{a}")))))
(check-sat)

(exit)
